bacp/01/params/inst-57-1-1139903203.param
language Essence 1.3
$ generated by bacp-gen.pl with seed 1139903203
$ edge probability 0.3458
$ course loads in range 2..6
letting n_courses be 62
letting n_periods be 30
letting load_per_period_lb be 7
letting load_per_period_ub be 42
letting courses_per_period_lb be 2
letting courses_per_period_ub be 8
letting course_load be function(
1 --> 2,
2 --> 3,
3 --> 4,
4 --> 5,
5 --> 3,
6 --> 2,
7 --> 4,
8 --> 5,
9 --> 4,
10 --> 4,
11 --> 4,
12 --> 4,
13 --> 2,
14 --> 6,
15 --> 3,
16 --> 2,
17 --> 4,
18 --> 5,
19 --> 5,
20 --> 4,
21 --> 5,
22 --> 2,
23 --> 5,
24 --> 2,
25 --> 5,
26 --> 4,
27 --> 2,
28 --> 5,
29 --> 2,
30 --> 3,
31 --> 3,
32 --> 3,
33 --> 4,
34 --> 4,
35 --> 4,
36 --> 6,
37 --> 5,
38 --> 6,
39 --> 3,
40 --> 6,
41 --> 5,
42 --> 6,
43 --> 3,
44 --> 2,
45 --> 2,
46 --> 2,
47 --> 5,
48 --> 2,
49 --> 3,
50 --> 4,
51 --> 2,
52 --> 3,
53 --> 3,
54 --> 3,
55 --> 4,
56 --> 6,
57 --> 4,
58 --> 3,
59 --> 5,
60 --> 3,
61 --> 5,
62 --> 5
)
letting prerequisite be relation (
(1,23),
(6,24),
(22,25),
(12,26),
(2,27),
(9,28),
(13,29),
(11,30),
(7,31),
(8,32),
(15,33),
(4,34),
(4,35),
(22,36),
(8,37),
(17,38),
(3,39),
(8,40),
(18,41),
(8,42),
(6,43),
(13,44),
(25,45),
(29,46),
(44,47),
(31,48),
(36,49),
(25,50),
(39,51),
(33,52),
(28,53),
(38,54),
(34,55),
(23,56),
(37,57),
(40,58),
(25,59),
(41,60),
(43,61),
(37,62),
(15,34),
(21,38),
(43,46),
(25,62),
(33,62),
(37,52),
(43,59),
(40,52),
(17,39),
(29,56),
(5,35),
(20,26),
(1,40),
(36,53),
(44,61),
(2,35),
(6,28),
(3,35),
(30,58),
(44,48),
(9,30),
(4,44),
(27,49),
(6,44),
(29,59),
(28,50),
(38,62),
(10,31),
(35,53),
(1,28),
(13,30),
(29,50),
(9,25),
(12,24),
(32,60),
(32,46),
(33,46),
(36,45),
(27,51),
(40,61),
(31,55),
(11,27),
(40,51),
(16,35),
(33,48),
(10,34),
(29,55),
(18,31),
(28,61),
(10,42),
(30,53),
(3,43),
(23,58),
(13,24),
(21,30),
(33,56),
(3,24),
(7,34),
(15,40),
(15,28),
(25,53),
(36,61),
(15,31),
(6,33),
(8,33),
(7,32),
(28,59),
(20,33),
(15,37),
(10,35),
(16,36),
(25,52),
(4,43),
(34,59),
(38,60),
(35,52),
(6,29),
(21,33),
(28,52),
(26,49),
(34,60),
(17,34),
(19,42),
(15,39),
(42,59),
(43,45),
(42,57),
(39,50),
(4,41),
(33,61),
(10,38),
(2,38),
(19,28),
(19,36),
(31,56),
(22,32),
(31,62),
(36,55),
(30,62),
(11,24),
(21,28),
(13,33),
(20,35),
(18,44),
(14,27),
(41,49),
(19,30),
(38,56),
(30,50),
(41,61),
(29,47),
(3,36),
(10,30),
(42,51),
(23,45),
(12,23),
(1,35),
(6,35),
(42,47),
(33,57),
(29,60),
(8,36),
(8,23),
(41,55),
(35,59),
(8,41),
(26,51),
(5,26),
(24,51),
(29,52),
(9,41),
(21,41),
(21,34),
(8,34),
(3,26),
(40,53),
(27,46),
(29,57),
(23,59),
(41,54),
(17,30),
(23,46),
(42,58),
(12,27),
(25,48),
(31,49),
(30,57),
(4,36),
(14,39),
(19,43),
(14,28),
(43,58),
(32,54),
(18,25),
(22,42),
(5,29),
(41,59),
(13,40),
(2,25),
(24,54),
(39,47),
(35,60),
(7,42),
(10,44),
(33,51),
(19,40),
(8,43),
(12,41),
(22,26),
(4,32),
(24,57),
(5,42),
(44,52),
(39,54),
(26,61),
(12,30),
(4,29),
(42,46),
(2,24),
(35,56),
(8,35),
(35,55),
(9,23),
(10,41),
(36,52),
(14,29),
(42,50),
(1,44),
(38,45),
(21,42),
(41,56),
(28,58),
(16,31),
(43,49),
(35,57),
(38,46),
(32,56),
(6,39),
(17,24),
(4,42),
(42,45),
(24,46),
(1,27),
(1,29),
(11,33),
(19,32),
(34,50),
(22,43),
(7,29),
(38,55),
(22,40),
(19,38),
(5,27),
(6,23),
(15,23),
(30,55),
(41,52),
(34,61),
(29,61),
(42,62),
(35,47),
(32,58),
(9,38),
(42,49),
(14,23),
(13,43),
(35,51),
(16,44),
(1,30),
(5,34),
(16,27),
(37,59),
(17,36),
(9,37),
(25,56),
(35,50),
(17,42),
(11,26),
(24,53),
(8,28),
(34,57),
(16,38),
(28,49),
(21,26),
(10,36),
(41,50),
(11,43),
(14,42),
(17,37),
(1,31),
(41,48),
(13,27),
(5,33),
(33,47),
(26,59),
(11,41),
(4,38),
(21,31),
(13,37),
(16,42),
(1,33),
(9,32),
(30,51),
(34,47)
)

