bacp/param_dec/inst-57-1-1139903203.eprime-param
language ESSENCE' 1.0

letting n_courses be 62
letting n_periods be 30
letting prerequisite_RelationAsSet_Explicit_1 be
        [1, 1, 1, 1, 1, 1, 1, 1, 1, 1, 2, 2, 2, 2, 2, 3, 3, 3, 3, 3, 3, 4, 4, 4, 4, 4, 4, 4, 4, 4, 4, 5, 5, 5, 5, 5, 5,
         5, 6, 6, 6, 6, 6, 6, 6, 6, 6, 7, 7, 7, 7, 7, 8, 8, 8, 8, 8, 8, 8, 8, 8, 8, 8, 8, 9, 9, 9, 9, 9, 9, 9, 9, 10,
         10, 10, 10, 10, 10, 10, 10, 10, 11, 11, 11, 11, 11, 11, 11, 12, 12, 12, 12, 12, 12, 13, 13, 13, 13, 13, 13, 13,
         13, 13, 14, 14, 14, 14, 14, 14, 15, 15, 15, 15, 15, 15, 15, 15, 16, 16, 16, 16, 16, 16, 16, 17, 17, 17, 17, 17,
         17, 17, 17, 18, 18, 18, 18, 19, 19, 19, 19, 19, 19, 19, 19, 20, 20, 20, 21, 21, 21, 21, 21, 21, 21, 21, 21, 22,
         22, 22, 22, 22, 22, 22, 23, 23, 23, 23, 23, 24, 24, 24, 24, 24, 25, 25, 25, 25, 25, 25, 25, 25, 26, 26, 26, 26,
         27, 27, 27, 28, 28, 28, 28, 28, 28, 28, 29, 29, 29, 29, 29, 29, 29, 29, 29, 29, 30, 30, 30, 30, 30, 30, 30, 31,
         31, 31, 31, 31, 32, 32, 32, 32, 32, 33, 33, 33, 33, 33, 33, 33, 33, 33, 34, 34, 34, 34, 34, 34, 34, 35, 35, 35,
         35, 35, 35, 35, 35, 35, 35, 36, 36, 36, 36, 36, 36, 37, 37, 37, 37, 38, 38, 38, 38, 38, 38, 38, 39, 39, 39, 39,
         40, 40, 40, 40, 40, 41, 41, 41, 41, 41, 41, 41, 41, 41, 41, 42, 42, 42, 42, 42, 42, 42, 42, 42, 42, 43, 43, 43,
         43, 43, 43, 44, 44, 44, 44;
             int(1..304)]
letting prerequisite_RelationAsSet_Explicit_2 be
        [23, 27, 28, 29, 30, 31, 33, 35, 40, 44, 24, 25, 27, 35, 38, 24, 26, 35, 36, 39, 43, 29, 32, 34, 35, 36, 38, 41,
         42, 43, 44, 26, 27, 29, 33, 34, 35, 42, 23, 24, 28, 29, 33, 35, 39, 43, 44, 29, 31, 32, 34, 42, 23, 28, 32, 33,
         34, 35, 36, 37, 40, 41, 42, 43, 23, 25, 28, 30, 32, 37, 38, 41, 30, 31, 34, 35, 36, 38, 41, 42, 44, 24, 26, 27,
         30, 33, 41, 43, 23, 24, 26, 27, 30, 41, 24, 27, 29, 30, 33, 37, 40, 43, 44, 23, 27, 28, 29, 39, 42, 23, 28, 31,
         33, 34, 37, 39, 40, 27, 31, 35, 36, 38, 42, 44, 24, 30, 34, 36, 37, 38, 39, 42, 25, 31, 41, 44, 28, 30, 32, 36,
         38, 40, 42, 43, 26, 33, 35, 26, 28, 30, 31, 33, 34, 38, 41, 42, 25, 26, 32, 36, 40, 42, 43, 45, 46, 56, 58, 59,
         46, 51, 53, 54, 57, 45, 48, 50, 52, 53, 56, 59, 62, 49, 51, 59, 61, 46, 49, 51, 49, 50, 52, 53, 58, 59, 61, 46,
         47, 50, 52, 55, 56, 57, 59, 60, 61, 50, 51, 53, 55, 57, 58, 62, 48, 49, 55, 56, 62, 46, 54, 56, 58, 60, 46, 47,
         48, 51, 52, 56, 57, 61, 62, 47, 50, 55, 57, 59, 60, 61, 47, 50, 51, 52, 53, 55, 56, 57, 59, 60, 45, 49, 52, 53,
         55, 61, 52, 57, 59, 62, 45, 46, 54, 55, 56, 60, 62, 47, 50, 51, 54, 51, 52, 53, 58, 61, 48, 49, 50, 52, 54, 55,
         56, 59, 60, 61, 45, 46, 47, 49, 50, 51, 57, 58, 59, 62, 45, 46, 49, 58, 59, 61, 47, 48, 52, 61;
             int(1..304)]
letting course_load_Function1D be
        [2, 3, 4, 5, 3, 2, 4, 5, 4, 4, 4, 4, 2, 6, 3, 2, 4, 5, 5, 4, 5, 2, 5, 2, 5, 4, 2, 5, 2, 3, 3, 3, 4, 4, 4, 6, 5,
         6, 3, 6, 5, 6, 3, 2, 2, 2, 5, 2, 3, 4, 2, 3, 3, 3, 4, 6, 4, 3, 5, 3, 5, 5;
             int(1..62)]
letting load_per_period_ub be 42
letting load_per_period_lb be 7
letting courses_per_period_ub be 8
letting courses_per_period_lb be 2
letting fin1 be 304
letting fin2 be 62
letting fin3 be 6
